num_offers = 40;
num_halls = 10;
start=[52,9,20,30,52,55,75,56,13,83,25,42,10,20,11,18,17,25,84,67,62,14,17,30,9,43,8,47,6,8,52,23,53,14,16,29,25,4,35,20];
end=[59,14,94,47,85,79,76,92,90,94,98,67,39,57,87,32,85,60,94,69,94,87,73,95,91,47,13,67,68,98,67,73,99,25,46,77,40,72,57,95];
price=[589,600,6887,1659,1392,367,98,2353,1932,225,1061,1031,2338,1895,3182,907,5998,3193,1061,60,2971,2015,4059,2657,2828,215,65,1547,1307,5753,1103,3446,2652,312,1315,4782,586,2240,608,1621];
requirement=[409,950,447,603,573,805,814,472,794,855,915,554,286,618,710,960,329,351,377,665,462,898,658,237,966,754,560,613,638,974,506,680,865,749,641,865,898,285,936,429];
capacity=[310,222,969,815,744,796,562,586,596,499];
